(set-option :auto-config false)
(set-option :model true)
(set-option :model.partial false)

(set-option :smt.mbqi false)

(define-sort Str () Int)
(declare-fun strLen (Str) Int)
(declare-fun subString (Str Int Int) Str)
(declare-fun concatString (Str Str) Str)
(define-sort Elt () Int)
(define-sort LSet () (Array Elt Bool))
(define-fun smt_set_emp () LSet ((as const LSet) false))
(define-fun smt_set_mem ((x Elt) (s LSet)) Bool (select s x))
(define-fun smt_set_add ((s LSet) (x Elt)) LSet (store s x true))
(define-fun smt_set_cup ((s1 LSet) (s2 LSet)) LSet ((_ map or) s1 s2))
(define-fun smt_set_cap ((s1 LSet) (s2 LSet)) LSet ((_ map and) s1 s2))
(define-fun smt_set_com ((s LSet)) LSet ((_ map not) s))
(define-fun smt_set_dif ((s1 LSet) (s2 LSet)) LSet (smt_set_cap s1 (smt_set_com s2)))
(define-fun smt_set_sub ((s1 LSet) (s2 LSet)) Bool (= smt_set_emp (smt_set_dif s1 s2)))
(define-sort Map () (Array Elt Elt))
(define-fun smt_map_sel ((m Map) (k Elt)) Elt (select m k))
(define-fun smt_map_sto ((m Map) (k Elt) (v Elt)) Map (store m k v))
(define-fun smt_map_cup ((m1 Map) (m2 Map)) Map ((_ map (+ (Elt Elt) Elt)) m1 m2))
(define-fun smt_map_def ((v Elt)) Map ((as const (Map)) v))
(define-fun bool_to_int ((b Bool)) Int (ite b 1 0))
(define-fun Z3_OP_MUL ((x Int) (y Int)) Int (* x y))
(define-fun Z3_OP_DIV ((x Int) (y Int)) Int (div x y))
(declare-datatypes ((VSemigroup.VSemigroup 1)) ((par (T0) ((junk$35$$35$VSemigroup.VSemigroup (junk$35$$35$VSemigroup.VSemigroup$35$$35$0 T0)) (VSemigroup.VSemigroup (VSemigroup.op Int) (VSemigroup.op_associative Int))))))
(declare-datatypes ((VOrdered.VOrdered 1)) ((par (T0) ((junk$35$$35$VOrdered.VOrdered (junk$35$$35$VOrdered.VOrdered$35$$35$0 T0)) (VOrdered.VOrdered (VOrdered.vleq Int) (VOrdered.vleq_reflexive Int) (VOrdered.vleq_antisymmetric Int) (VOrdered.vleq_transitive Int) (VOrdered.vleq_connex Int))))))
(declare-datatypes ((VNat.VNat 0)) ((par () (VNat.Zero (VNat.Suc (lqdc$35$$35$$36$select$35$$35$VNat.Suc$35$$35$1 VNat.VNat))))))
(declare-datatypes ((VList.VList 1)) ((par (T0) ((VList.VCons (VList.VCons$35$$35$lqdc$35$$35$$36$select$35$$35$VList.VCons$35$$35$1 T0) (VList.VCons$35$$35$lqdc$35$$35$$36$select$35$$35$VList.VCons$35$$35$2 (VList.VList T0))) VList.VNil))))
(declare-datatypes ((VFunctor.VFunctor 1)) ((par (T0) ((junk$35$$35$VFunctor.VFunctor (junk$35$$35$VFunctor.VFunctor$35$$35$0 T0)) (VFunctor.VFunctor (VFunctor.vmap Int) (VFunctor.vmap_vid Int))))))
(declare-datatypes ((VMonad.VMonad 1)) ((par (T0) ((junk$35$$35$VMonad.VMonad (junk$35$$35$VMonad.VMonad$35$$35$0 T0)) (VMonad.VMonad (VMonad.iFunctor (VFunctor.VFunctor T0)) (VMonad.vlift Int) (VMonad.vbind Int) (VMonad.vbind_correct Int) (VMonad.vbind_identity Int) (VMonad.vbind_vlift Int) (VMonad.vbind_vbind Int))))))
(declare-datatypes ((VMonadPlus.VMonadPlus 1)) ((par (T0) ((junk$35$$35$VMonadPlus.VMonadPlus (junk$35$$35$VMonadPlus.VMonadPlus$35$$35$0 T0)) (VMonadPlus.VMonadPlus (VMonadPlus.iMonad (VMonad.VMonad T0)) (VMonadPlus.vmpepsilon Int) (VMonadPlus.vmpadd Int) (VMonadPlus.vmpadd_identity Int) (VMonadPlus.vmpadd_associative Int) (VMonadPlus.vmpadd_distributive_left Int) (VMonadPlus.vmpadd_distributive_right Int) (VMonadPlus.vbind_identity_left Int) (VMonadPlus.vseq_identity_right Int))))))
(declare-fun ds_d2Zp () (VList.VList Int))
(declare-fun lq_tmp$36$x$35$$35$2191 () (VList.VList Int))
(declare-fun GHC.Base.id () Int)
(declare-fun cast_as_int () Int)
(declare-fun SlowSortList.slowsort () Int)
(declare-fun VMonad.vmapM2 () Int)
(declare-fun VList.vreverse () Int)
(declare-fun GHC.Real.rem () Int)
(declare-fun GHC.List.init () Int)
(declare-fun zs$39$$35$$35$a1Om () (VList.VList Int))
(declare-fun addrLen () Int)
(declare-fun lq_tmp$36$x$35$$35$2144 () (VList.VList Int))
(declare-fun x$35$$35$a1P4 () Int)
(declare-fun papp5 () Int)
(declare-fun Language.Haskell.Liquid.ProofCombinators.Admit () Int)
(declare-fun GHC.List.iterate () Int)
(declare-fun x_Tuple21 () Int)
(declare-fun GHC.Classes.$61$$61$ () Int)
(declare-fun GHC.Types.C$35$ () Int)
(declare-fun GHC.List.drop () Int)
(declare-fun zs$35$$35$a1OI () (VList.VList Int))
(declare-fun VTuple.snd2D () Int)
(declare-fun Language.Haskell.Liquid.ProofCombinators.withProof () Int)
(declare-fun is$36$GHC.Types.$91$$93$ () Int)
(declare-fun Data.Foldable.length () Int)
(declare-fun x_Tuple33 () Int)
(declare-fun Function.vconst () Int)
(declare-fun VTuple.fst2D () Int)
(declare-fun is$36$GHC.Tuple.$40$$44$$41$ () Int)
(declare-fun GHC.Types.LT () Int)
(declare-fun GHC.List.replicate () Int)
(declare-fun lq_tmp$36$x$35$$35$2750 () (VMonadPlus.VMonadPlus Int))
(declare-fun GHC.List.zipWith () Int)
(declare-fun ys$35$$35$a1OR () (VList.VList Int))
(declare-fun GHC.Classes.$62$$61$ () Int)
(declare-fun Function.vid () Int)
(declare-fun VTuple.snd3 () Int)
(declare-fun GHC.Num.fromInteger () Int)
(declare-fun x$35$$35$a1OU () Int)
(declare-fun papp3 () Int)
(declare-fun lq_tmp$36$x$35$$35$1253 () Int)
(declare-fun x$35$$35$a1Oe () Int)
(declare-fun GHC.List.span () Int)
(declare-fun lqdc$35$$35$$36$select$35$$35$GHC.Tuple.$40$$44$$44$$41$$35$$35$1 () Int)
(declare-fun lq_tmp$36$x$35$$35$1783 () (VList.VList Int))
(declare-fun lq_tmp$36$x$35$$35$2438 () Int)
(declare-fun GHC.Classes.$62$ () Int)
(declare-fun lit$36$SlowSortList () Str)
(declare-fun lq_tmp$36$x$35$$35$2205 () (VList.VList Int))
(declare-fun VMonadPlus.guard_isCommutativeMonadic () Int)
(declare-fun GHC.Types.False () Bool)
(declare-fun GHC.List.scanr1 () Int)
(declare-fun lqdc$35$$35$$36$select$35$$35$GHC.Types.$58$$35$$35$1 () Int)
(declare-fun iMonadPlus$35$$35$a1P0 () (VMonadPlus.VMonadPlus Int))
(declare-fun VMonadPlus.guard_disjoint_branch () Int)
(declare-fun lq_tmp$36$x$35$$35$1774 () Int)
(declare-fun VTuple.fst3 () Int)
(declare-fun GHC.Types.$58$ () Int)
(declare-fun zs$35$$35$a1OS () (VList.VList Int))
(declare-fun x$35$$35$a1OB () Int)
(declare-fun GHC.Real.div () Int)
(declare-fun lq_tmp$36$x$35$$35$1773 () (VList.VList Int))
(declare-fun GHC.List.scanl () Int)
(declare-fun ds_d2ZA () Int)
(declare-fun lq_tmp$36$x$35$$35$1902 () (VList.VList Int))
(declare-fun SlowSortList.permute_aux1 () Int)
(declare-fun SlowSortList.isSortedBetween_expansion_correct () Int)
(declare-fun Language.Haskell.Liquid.ProofCombinators.$61$$60$$61$ () Int)
(declare-fun GHC.Tuple.$40$$44$$44$$41$ () Int)
(declare-fun papp4 () Int)
(declare-fun GHC.Types.Module () Int)
(declare-fun lq_tmp$36$x$35$$35$1254 () Int)
(declare-fun VMonadPlus.vmpepsilon_refines () Int)
(declare-fun GHC.List.zip () Int)
(declare-fun x$35$$35$a1Or () Int)
(declare-fun lq_tmp$36$x$35$$35$2440 () Int)
(declare-fun GHC.Tuple.$40$$41$ () Int)
(declare-fun lq_tmp$36$x$35$$35$1737 () (VList.VList Int))
(declare-fun GHC.Types.I$35$ () Int)
(declare-fun ys$35$$35$a1OH () (VList.VList Int))
(declare-fun lq_tmp$36$x$35$$35$1748 () (VList.VList Int))
(declare-fun lq_tmp$36$x$35$$35$1128 () (VList.VList Int))
(declare-fun ds_d2Yg () (VList.VList Int))
(declare-fun GHC.List.dropWhile () Int)
(declare-fun lq_tmp$36$x$35$$35$1420 () (VList.VList Int))
(declare-fun lq_tmp$36$x$35$$35$1402 () Int)
(declare-fun VMonad.vseq () Int)
(declare-fun lq_tmp$36$x$35$$35$1691 () (VList.VList Int))
(declare-fun autolen () Int)
(declare-fun SlowSortList.isSorted () Int)
(declare-fun zs$35$$35$a1ON () (VList.VList Int))
(declare-fun GHC.Integer.Type.$36$WJn$35$ () Int)
(declare-fun GHC.Real.$94$ () Int)
(declare-fun head () Int)
(declare-fun GHC.Real.mod () Int)
(declare-fun lq_anf$36$$35$$35$7205759403792805204$35$$35$d31a () Bool)
(declare-fun lq_tmp$36$x$35$$35$1580 () (VList.VList Int))
(declare-fun lq_tmp$36$x$35$$35$2439 () Int)
(declare-fun is$36$GHC.Tuple.$40$$44$$44$$41$ () Int)
(declare-fun SlowSortList.split () Int)
(declare-fun lq_tmp$36$x$35$$35$1612 () (VList.VList Int))
(declare-fun ds_d2Zg () Int)
(declare-fun lit$36$monadic$45$quicksort$45$verification$45$0.1.0.0$45$inplace () Str)
(declare-fun VList.vsingleton () Int)
(declare-fun GHC.Real.divMod () Int)
(declare-fun ds_d2X5 () Int)
(declare-fun GHC.Integer.Type.Jn$35$ () Int)
(declare-fun VList.vappend_identity () Int)
(declare-fun xs$35$$35$a1O7 () (VList.VList Int))
(declare-fun GHC.Classes.compare () Int)
(declare-fun lq_tmp$36$x$35$$35$1775 () Int)
(declare-fun lq_tmp$36$x$35$$35$2745 () (VList.VList Int))
(declare-fun Language.Haskell.Liquid.ProofCombinators.$42$$42$$42$ () Int)
(declare-fun VTuple.fst2 () Int)
(declare-fun VTuple.snd2 () Int)
(declare-fun is$36$GHC.Types.$58$ () Int)
(declare-fun papp2 () Int)
(declare-fun lq_tmp$36$x$35$$35$1252 () Int)
(declare-fun lq_anf$36$$35$$35$7205759403792805206$35$$35$d31c () Bool)
(declare-fun GHC.Real.toInteger () Int)
(declare-fun GHC.Real.quotRem () Int)
(declare-fun xs$35$$35$a1P5 () (VList.VList Int))
(declare-fun GHC.Stack.Types.EmptyCallStack () Int)
(declare-fun ys$39$$35$$35$a1Ol () (VList.VList Int))
(declare-fun lq_tmp$36$x$35$$35$2193 () (VList.VList Int))
(declare-fun GHC.List.reverse () Int)
(declare-fun GHC.Integer.Type.$36$WJp$35$ () Int)
(declare-fun GHC.List.filter () Int)
(declare-fun Language.Haskell.Liquid.ProofCombinators.$63$ () Int)
(declare-fun lq_tmp$36$x$35$$35$1891 () (VList.VList Int))
(declare-fun fromJust () Int)
(declare-fun SlowSortList.permute_aux2 () Int)
(declare-fun GHC.List.cycle () Int)
(declare-fun GHC.List.$33$$33$ () Int)
(declare-fun VMonadPlus.guard () Int)
(declare-fun GHC.List.tail () Int)
(declare-fun x$35$$35$a1OQ () Int)
(declare-fun papp7 () Int)
(declare-fun lq_tmp$36$x$35$$35$991 () (VList.VList Int))
(declare-fun VMonad.vmapM () Int)
(declare-fun GHC.Classes.$47$$61$ () Int)
(declare-fun VList.iSemigroup_vappend () (VSemigroup.VSemigroup (VList.VList Int)))
(declare-fun GHC.List.break () Int)
(declare-fun GHC.Types.True () Bool)
(declare-fun VMonadPlus.vbind_monotonic_refinement () Int)
(declare-fun lq_tmp$36$x$35$$35$1870 () (VList.VList Int))
(declare-fun lq_tmp$36$x$35$$35$2729 () (VList.VList Int))
(declare-fun GHC.Types.$91$$93$ () Int)
(declare-fun GHC.List.splitAt () Int)
(declare-fun GHC.Base.$43$$43$ () Int)
(declare-fun vleq_$35$$35$a1OO () Int)
(declare-fun GHC.Real.$58$$37$ () Int)
(declare-fun VTuple.vtuple3D () Int)
(declare-fun GHC.Tuple.$40$$44$$41$ () Int)
(declare-fun lq_tmp$36$x$35$$35$1421 () (VList.VList Int))
(declare-fun GHC.Real.quot () Int)
(declare-fun lq_tmp$36$x$35$$35$1601 () (VList.VList Int))
(declare-fun GHC.Real.$47$ () Int)
(declare-fun lq_tmp$36$x$35$$35$1403 () Int)
(declare-fun VMonadPlus.component_right_refines () Int)
(declare-fun VMonad.vseq_associative () Int)
(declare-fun lq_tmp$36$x$35$$35$1424 () (VList.VList Int))
(declare-fun Language.Haskell.Liquid.ProofCombinators.$61$$61$$61$ () Int)
(declare-fun GHC.Classes.$38$$38$ () Int)
(declare-fun VMonadPlus.guard_and_vseq () Int)
(declare-fun lq_tmp$36$x$35$$35$2155 () (VList.VList Int))
(declare-fun SlowSortList.isSortedBetween_expansion () Int)
(declare-fun x$35$$35$a1Ok () Int)
(declare-fun GHC.Types.GT () Int)
(declare-fun GHC.Classes.C$58$IP () Int)
(declare-fun VMonad.kleisli () Int)
(declare-fun GHC.Classes.$124$$124$ () Int)
(declare-fun lq_anf$36$$35$$35$7205759403792805202$35$$35$d318 () Int)
(declare-fun Data.Either.Left () Int)
(declare-fun GHC.List.last () Int)
(declare-fun lq_anf$36$$35$$35$7205759403792805203$35$$35$d319 () Int)
(declare-fun VMonadPlus.raw_vmpaddF () Int)
(declare-fun GHC.Integer.Type.S$35$ () Int)
(declare-fun GHC.List.scanl1 () Int)
(declare-fun iOrdered$35$$35$a1OF () (VOrdered.VOrdered Int))
(declare-fun Data.Either.Right () Int)
(declare-fun Language.Haskell.Liquid.ProofCombinators.$61$$62$$61$ () Int)
(declare-fun VMonad.raw_kleisli () Int)
(declare-fun SlowSortList.permute () Int)
(declare-fun VMonadPlus.component_left_refines () Int)
(declare-fun VMonadPlus.vmpaddF () Int)
(declare-fun lq_tmp$36$x$35$$35$1133 () (VList.VList Int))
(declare-fun xs$35$$35$a1Os () (VList.VList Int))
(declare-fun GHC.Num.$45$ () Int)
(declare-fun lq_tmp$36$x$35$$35$2121 () (VList.VList Int))
(declare-fun len () Int)
(declare-fun ds_d2Z3 () (VList.VList Int))
(declare-fun papp6 () Int)
(declare-fun lq_tmp$36$x$35$$35$990 () (VList.VList Int))
(declare-fun GHC.Base.. () Int)
(declare-fun x_Tuple22 () Int)
(declare-fun xs$35$$35$a1OC () (VList.VList Int))
(declare-fun iOrdered$35$$35$a1O6 () (VOrdered.VOrdered Int))
(declare-fun VV$35$$35$F$35$$35$256 () Bool)
(declare-fun lq_tmp$36$x$35$$35$2192 () (VList.VList Int))
(declare-fun lq_tmp$36$x$35$$35$989 () (VList.VList Int))
(declare-fun lq_tmp$36$x$35$$35$1670 () (VList.VList Int))
(declare-fun VTuple.thd3D () Int)
(declare-fun isAdmit () Int)
(declare-fun VList.vappend () Int)
(declare-fun ds_d305 () Int)
(declare-fun lq_tmp$36$x$35$$35$1260 () (VList.VList Int))
(declare-fun lq_tmp$36$x$35$$35$1419 () (VList.VList Int))
(declare-fun VMonadPlus.guard_and () Int)
(declare-fun GHC.Real.$36$W$58$$37$ () Int)
(declare-fun iOrdered$35$$35$a1OK () (VOrdered.VOrdered Int))
(declare-fun lq_tmp$36$x$35$$35$1422 () Int)
(declare-fun GHC.Real.fromRational () Int)
(declare-fun isJust () Int)
(declare-fun SlowSortList.isSortedBetween () Int)
(declare-fun ds_d2YE () Int)
(declare-fun lq_tmp$36$x$35$$35$2698 () (VList.VList Int))
(declare-fun GHC.List.takeWhile () Int)
(declare-fun GHC.Types.TrNameD () Int)
(declare-fun Function.$38$ () Int)
(declare-fun VMonadPlus.identity_refines () Int)
(declare-fun VMonadPlus.guardBy () Int)
(declare-fun VList.vreverse_preserves_vlength () Int)
(declare-fun x_Tuple31 () Int)
(declare-fun GHC.Integer.Type.Jp$35$ () Int)
(declare-fun lq_tmp$36$x$35$$35$1762 () (VList.VList Int))
(declare-fun GHC.IO.Exception.IOError () Int)
(declare-fun GHC.List.take () Int)
(declare-fun GHC.Stack.Types.PushCallStack () Int)
(declare-fun prop () Int)
(declare-fun lq_tmp$36$x$35$$35$2132 () (VList.VList Int))
(declare-fun GHC.Types.TrNameS () Int)
(declare-fun iMonadPlus$35$$35$a1Ox () (VMonadPlus.VMonadPlus Int))
(declare-fun GHC.Enum.C$58$Bounded () Int)
(declare-fun xs$35$$35$a1Oy () (VList.VList Int))
(declare-fun GHC.Base.map () Int)
(declare-fun lqdc$35$$35$$36$select$35$$35$GHC.Tuple.$40$$44$$41$$35$$35$2 () Int)
(declare-fun VMonad.vseq_epsilon () Int)
(declare-fun VMonad.vseq_identity_left () Int)
(declare-fun VList.vall () Int)
(declare-fun GHC.Base.$36$ () Int)
(declare-fun papp1 () Int)
(declare-fun VTuple.vtuple2D () Int)
(declare-fun GHC.Classes.max () Int)
(declare-fun lqdc$35$$35$$36$select$35$$35$GHC.Tuple.$40$$44$$44$$41$$35$$35$3 () Int)
(declare-fun Language.Haskell.Liquid.ProofCombinators.impossible () Int)
(declare-fun lq_tmp$36$x$35$$35$1431 () (VList.VList Int))
(declare-fun GHC.Classes.$60$ () Int)
(declare-fun tail () Int)
(declare-fun ys$35$$35$a1OM () (VList.VList Int))
(declare-fun Language.Haskell.Liquid.ProofCombinators.$61$$61$$33$ () Int)
(declare-fun VList.vlength () Int)
(declare-fun iMonadPlus$35$$35$a1O5 () (VMonadPlus.VMonadPlus Int))
(declare-fun lq_tmp$36$x$35$$35$1776 () Int)
(declare-fun lq_tmp$36$x$35$$35$2746 () (VList.VList Int))
(declare-fun x$35$$35$a1OG () Int)
(declare-fun GHC.Stack.Types.FreezeCallStack () Int)
(declare-fun VList.vappend_sums_vlength () Int)
(declare-fun GHC.Num.$42$ () Int)
(declare-fun ys$35$$35$a1OV () (VList.VList Int))
(declare-fun lq_tmp$36$x$35$$35$3007 () (VList.VList Int))
(declare-fun lq_tmp$36$x$35$$35$1702 () (VList.VList Int))
(declare-fun lq_tmp$36$x$35$$35$1423 () (VList.VList Int))
(declare-fun iMonadPlus$35$$35$a1On () (VMonadPlus.VMonadPlus Int))
(declare-fun x$35$$35$a1OL () Int)
(declare-fun ys$35$$35$a1Of () (VList.VList Int))
(declare-fun iOrdered$35$$35$a1Oz () (VOrdered.VOrdered Int))
(declare-fun GHC.Real.recip () Int)
(declare-fun Function.vdiagonalize () Int)
(declare-fun VTuple.thd3 () Int)
(declare-fun GHC.Maybe.Nothing () Int)
(declare-fun lq_tmp$36$x$35$$35$2709 () (VList.VList Int))
(declare-fun Function.vcomp () Int)
(declare-fun GHC.Types.EQ () Int)
(declare-fun lq_tmp$36$x$35$$35$2169 () (VList.VList Int))
(declare-fun GHC.List.scanr () Int)
(declare-fun GHC.Num.negate () Int)
(declare-fun VMonad.vseq_identity_right () Int)
(declare-fun lq_tmp$36$x$35$$35$1000 () (VList.VList Int))
(declare-fun lq_tmp$36$x$35$$35$1404 () Int)
(declare-fun GHC.Real.fromIntegral () Int)
(declare-fun GHC.Maybe.Just () Int)
(declare-fun GHC.Classes.min () Int)
(declare-fun GHC.List.head () Int)
(declare-fun lqdc$35$$35$$36$select$35$$35$GHC.Tuple.$40$$44$$41$$35$$35$1 () Int)
(declare-fun Function.vapply () Int)
(declare-fun VList.vappend_associative () Int)
(declare-fun x_Tuple32 () Int)
(declare-fun SlowSortList.identity_refines_permute () Int)
(declare-fun GHC.List.repeat () Int)
(declare-fun lqdc$35$$35$$36$select$35$$35$GHC.Types.$58$$35$$35$2 () Int)
(declare-fun Function.vflip () Int)
(declare-fun iMonadPlus$35$$35$a1Od () (VMonadPlus.VMonadPlus Int))
(declare-fun zs$35$$35$a1OW () (VList.VList Int))
(declare-fun GHC.Classes.not () Int)
(declare-fun VMonad.vseq_identity () Int)
(declare-fun GHC.Num.$43$ () Int)
(declare-fun Data.Tuple.fst () Int)
(declare-fun SlowSortList.split_aux1 () Int)
(declare-fun VMonad.vliftF_second () Int)
(declare-fun lq_anf$36$$35$$35$7205759403792805205$35$$35$d31b () Int)
(declare-fun GHC.Err.error () Int)
(declare-fun Function.vconstF () Int)
(declare-fun snd () Int)
(declare-fun fst () Int)
(declare-fun Language.Haskell.Liquid.ProofCombinators.QED () Int)
(declare-fun lqdc$35$$35$$36$select$35$$35$GHC.Tuple.$40$$44$$44$$41$$35$$35$2 () Int)
(declare-fun VMonadPlus.guard_disjoint () Int)
(declare-fun zs$35$$35$a1Og () (VList.VList Int))
(declare-fun iMonadPlus$35$$35$a1OT () (VMonadPlus.VMonadPlus Int))
(declare-fun Data.Tuple.snd () Int)
(declare-fun iOrdered$35$$35$a1OP () (VOrdered.VOrdered Int))
(declare-fun lq_tmp$36$x$35$$35$1430 () (VList.VList Int))
(declare-fun apply$35$$35$46 (Int (VMonad.VMonad Int)) Bool)
(declare-fun apply$35$$35$15 (Int Bool) (VMonadPlus.VMonadPlus Int))
(declare-fun apply$35$$35$17 (Int Bool) (VOrdered.VOrdered Int))
(declare-fun apply$35$$35$73 (Int (VOrdered.VOrdered Int)) Bool)
(declare-fun apply$35$$35$55 (Int (VMonadPlus.VMonadPlus Int)) Bool)
(declare-fun apply$35$$35$14 (Int Bool) (VMonad.VMonad Int))
(declare-fun apply$35$$35$34 (Int (_ BitVec 32)) VNat.VNat)
(declare-fun apply$35$$35$28 (Int (_ BitVec 32)) Bool)
(declare-fun apply$35$$35$35 (Int (_ BitVec 32)) (VOrdered.VOrdered Int))
(declare-fun apply$35$$35$33 (Int (_ BitVec 32)) (VMonadPlus.VMonadPlus Int))
(declare-fun apply$35$$35$32 (Int (_ BitVec 32)) (VMonad.VMonad Int))
(declare-fun apply$35$$35$19 (Int Str) Bool)
(declare-fun apply$35$$35$22 (Int Str) (VList.VList Int))
(declare-fun apply$35$$35$11 (Int Bool) Str)
(declare-fun apply$35$$35$25 (Int Str) VNat.VNat)
(declare-fun apply$35$$35$4 (Int Int) (VList.VList Int))
(declare-fun apply$35$$35$21 (Int Str) (_ BitVec 32))
(declare-fun apply$35$$35$45 (Int (VMonad.VMonad Int)) Int)
(declare-fun apply$35$$35$72 (Int (VOrdered.VOrdered Int)) Int)
(declare-fun apply$35$$35$54 (Int (VMonadPlus.VMonadPlus Int)) Int)
(declare-fun apply$35$$35$76 (Int (VOrdered.VOrdered Int)) (VList.VList Int))
(declare-fun apply$35$$35$49 (Int (VMonad.VMonad Int)) (VList.VList Int))
(declare-fun apply$35$$35$58 (Int (VMonadPlus.VMonadPlus Int)) (VList.VList Int))
(declare-fun apply$35$$35$42 (Int (VList.VList Int)) (VMonadPlus.VMonadPlus Int))
(declare-fun apply$35$$35$30 (Int (_ BitVec 32)) (_ BitVec 32))
(declare-fun apply$35$$35$70 (Int VNat.VNat) VNat.VNat)
(declare-fun apply$35$$35$0 (Int Int) Int)
(declare-fun apply$35$$35$41 (Int (VList.VList Int)) (VMonad.VMonad Int))
(declare-fun apply$35$$35$44 (Int (VList.VList Int)) (VOrdered.VOrdered Int))
(declare-fun apply$35$$35$79 (Int (VOrdered.VOrdered Int)) VNat.VNat)
(declare-fun apply$35$$35$69 (Int VNat.VNat) (VMonadPlus.VMonadPlus Int))
(declare-fun apply$35$$35$75 (Int (VOrdered.VOrdered Int)) (_ BitVec 32))
(declare-fun apply$35$$35$48 (Int (VMonad.VMonad Int)) (_ BitVec 32))
(declare-fun apply$35$$35$52 (Int (VMonad.VMonad Int)) VNat.VNat)
(declare-fun apply$35$$35$68 (Int VNat.VNat) (VMonad.VMonad Int))
(declare-fun apply$35$$35$61 (Int (VMonadPlus.VMonadPlus Int)) VNat.VNat)
(declare-fun apply$35$$35$71 (Int VNat.VNat) (VOrdered.VOrdered Int))
(declare-fun apply$35$$35$57 (Int (VMonadPlus.VMonadPlus Int)) (_ BitVec 32))
(declare-fun apply$35$$35$18 (Int Str) Int)
(declare-fun apply$35$$35$47 (Int (VMonad.VMonad Int)) Str)
(declare-fun apply$35$$35$74 (Int (VOrdered.VOrdered Int)) Str)
(declare-fun apply$35$$35$56 (Int (VMonadPlus.VMonadPlus Int)) Str)
(declare-fun apply$35$$35$65 (Int VNat.VNat) Str)
(declare-fun apply$35$$35$1 (Int Int) Bool)
(declare-fun apply$35$$35$37 (Int (VList.VList Int)) Bool)
(declare-fun apply$35$$35$13 (Int Bool) (VList.VList Int))
(declare-fun apply$35$$35$66 (Int VNat.VNat) (_ BitVec 32))
(declare-fun apply$35$$35$12 (Int Bool) (_ BitVec 32))
(declare-fun apply$35$$35$31 (Int (_ BitVec 32)) (VList.VList Int))
(declare-fun apply$35$$35$16 (Int Bool) VNat.VNat)
(declare-fun apply$35$$35$7 (Int Int) VNat.VNat)
(declare-fun apply$35$$35$23 (Int Str) (VMonad.VMonad Int))
(declare-fun apply$35$$35$24 (Int Str) (VMonadPlus.VMonadPlus Int))
(declare-fun apply$35$$35$26 (Int Str) (VOrdered.VOrdered Int))
(declare-fun apply$35$$35$63 (Int VNat.VNat) Int)
(declare-fun apply$35$$35$6 (Int Int) (VMonadPlus.VMonadPlus Int))
(declare-fun apply$35$$35$5 (Int Int) (VMonad.VMonad Int))
(declare-fun apply$35$$35$8 (Int Int) (VOrdered.VOrdered Int))
(declare-fun apply$35$$35$36 (Int (VList.VList Int)) Int)
(declare-fun apply$35$$35$29 (Int (_ BitVec 32)) Str)
(declare-fun apply$35$$35$80 (Int (VOrdered.VOrdered Int)) (VOrdered.VOrdered Int))
(declare-fun apply$35$$35$20 (Int Str) Str)
(declare-fun apply$35$$35$59 (Int (VMonadPlus.VMonadPlus Int)) (VMonad.VMonad Int))
(declare-fun apply$35$$35$78 (Int (VOrdered.VOrdered Int)) (VMonadPlus.VMonadPlus Int))
(declare-fun apply$35$$35$62 (Int (VMonadPlus.VMonadPlus Int)) (VOrdered.VOrdered Int))
(declare-fun apply$35$$35$77 (Int (VOrdered.VOrdered Int)) (VMonad.VMonad Int))
(declare-fun apply$35$$35$10 (Int Bool) Bool)
(declare-fun apply$35$$35$51 (Int (VMonad.VMonad Int)) (VMonadPlus.VMonadPlus Int))
(declare-fun apply$35$$35$40 (Int (VList.VList Int)) (VList.VList Int))
(declare-fun apply$35$$35$60 (Int (VMonadPlus.VMonadPlus Int)) (VMonadPlus.VMonadPlus Int))
(declare-fun apply$35$$35$50 (Int (VMonad.VMonad Int)) (VMonad.VMonad Int))
(declare-fun apply$35$$35$53 (Int (VMonad.VMonad Int)) (VOrdered.VOrdered Int))
(declare-fun apply$35$$35$39 (Int (VList.VList Int)) (_ BitVec 32))
(declare-fun apply$35$$35$64 (Int VNat.VNat) Bool)
(declare-fun apply$35$$35$43 (Int (VList.VList Int)) VNat.VNat)
(declare-fun apply$35$$35$2 (Int Int) Str)
(declare-fun apply$35$$35$67 (Int VNat.VNat) (VList.VList Int))
(declare-fun apply$35$$35$38 (Int (VList.VList Int)) Str)
(declare-fun apply$35$$35$27 (Int (_ BitVec 32)) Int)
(declare-fun apply$35$$35$3 (Int Int) (_ BitVec 32))
(declare-fun apply$35$$35$9 (Int Bool) Int)
(declare-fun coerce$35$$35$46 ((VMonad.VMonad Int)) Bool)
(declare-fun coerce$35$$35$15 (Bool) (VMonadPlus.VMonadPlus Int))
(declare-fun coerce$35$$35$17 (Bool) (VOrdered.VOrdered Int))
(declare-fun coerce$35$$35$73 ((VOrdered.VOrdered Int)) Bool)
(declare-fun coerce$35$$35$55 ((VMonadPlus.VMonadPlus Int)) Bool)
(declare-fun coerce$35$$35$14 (Bool) (VMonad.VMonad Int))
(declare-fun coerce$35$$35$34 ((_ BitVec 32)) VNat.VNat)
(declare-fun coerce$35$$35$28 ((_ BitVec 32)) Bool)
(declare-fun coerce$35$$35$35 ((_ BitVec 32)) (VOrdered.VOrdered Int))
(declare-fun coerce$35$$35$33 ((_ BitVec 32)) (VMonadPlus.VMonadPlus Int))
(declare-fun coerce$35$$35$32 ((_ BitVec 32)) (VMonad.VMonad Int))
(declare-fun coerce$35$$35$19 (Str) Bool)
(declare-fun coerce$35$$35$22 (Str) (VList.VList Int))
(declare-fun coerce$35$$35$11 (Bool) Str)
(declare-fun coerce$35$$35$25 (Str) VNat.VNat)
(declare-fun coerce$35$$35$4 (Int) (VList.VList Int))
(declare-fun coerce$35$$35$21 (Str) (_ BitVec 32))
(declare-fun coerce$35$$35$45 ((VMonad.VMonad Int)) Int)
(declare-fun coerce$35$$35$72 ((VOrdered.VOrdered Int)) Int)
(declare-fun coerce$35$$35$54 ((VMonadPlus.VMonadPlus Int)) Int)
(declare-fun coerce$35$$35$76 ((VOrdered.VOrdered Int)) (VList.VList Int))
(declare-fun coerce$35$$35$49 ((VMonad.VMonad Int)) (VList.VList Int))
(declare-fun coerce$35$$35$58 ((VMonadPlus.VMonadPlus Int)) (VList.VList Int))
(declare-fun coerce$35$$35$42 ((VList.VList Int)) (VMonadPlus.VMonadPlus Int))
(declare-fun coerce$35$$35$30 ((_ BitVec 32)) (_ BitVec 32))
(declare-fun coerce$35$$35$70 (VNat.VNat) VNat.VNat)
(declare-fun coerce$35$$35$0 (Int) Int)
(declare-fun coerce$35$$35$41 ((VList.VList Int)) (VMonad.VMonad Int))
(declare-fun coerce$35$$35$44 ((VList.VList Int)) (VOrdered.VOrdered Int))
(declare-fun coerce$35$$35$79 ((VOrdered.VOrdered Int)) VNat.VNat)
(declare-fun coerce$35$$35$69 (VNat.VNat) (VMonadPlus.VMonadPlus Int))
(declare-fun coerce$35$$35$75 ((VOrdered.VOrdered Int)) (_ BitVec 32))
(declare-fun coerce$35$$35$48 ((VMonad.VMonad Int)) (_ BitVec 32))
(declare-fun coerce$35$$35$52 ((VMonad.VMonad Int)) VNat.VNat)
(declare-fun coerce$35$$35$68 (VNat.VNat) (VMonad.VMonad Int))
(declare-fun coerce$35$$35$61 ((VMonadPlus.VMonadPlus Int)) VNat.VNat)
(declare-fun coerce$35$$35$71 (VNat.VNat) (VOrdered.VOrdered Int))
(declare-fun coerce$35$$35$57 ((VMonadPlus.VMonadPlus Int)) (_ BitVec 32))
(declare-fun coerce$35$$35$18 (Str) Int)
(declare-fun coerce$35$$35$47 ((VMonad.VMonad Int)) Str)
(declare-fun coerce$35$$35$74 ((VOrdered.VOrdered Int)) Str)
(declare-fun coerce$35$$35$56 ((VMonadPlus.VMonadPlus Int)) Str)
(declare-fun coerce$35$$35$65 (VNat.VNat) Str)
(declare-fun coerce$35$$35$1 (Int) Bool)
(declare-fun coerce$35$$35$37 ((VList.VList Int)) Bool)
(declare-fun coerce$35$$35$13 (Bool) (VList.VList Int))
(declare-fun coerce$35$$35$66 (VNat.VNat) (_ BitVec 32))
(declare-fun coerce$35$$35$12 (Bool) (_ BitVec 32))
(declare-fun coerce$35$$35$31 ((_ BitVec 32)) (VList.VList Int))
(declare-fun coerce$35$$35$16 (Bool) VNat.VNat)
(declare-fun coerce$35$$35$7 (Int) VNat.VNat)
(declare-fun coerce$35$$35$23 (Str) (VMonad.VMonad Int))
(declare-fun coerce$35$$35$24 (Str) (VMonadPlus.VMonadPlus Int))
(declare-fun coerce$35$$35$26 (Str) (VOrdered.VOrdered Int))
(declare-fun coerce$35$$35$63 (VNat.VNat) Int)
(declare-fun coerce$35$$35$6 (Int) (VMonadPlus.VMonadPlus Int))
(declare-fun coerce$35$$35$5 (Int) (VMonad.VMonad Int))
(declare-fun coerce$35$$35$8 (Int) (VOrdered.VOrdered Int))
(declare-fun coerce$35$$35$36 ((VList.VList Int)) Int)
(declare-fun coerce$35$$35$29 ((_ BitVec 32)) Str)
(declare-fun coerce$35$$35$80 ((VOrdered.VOrdered Int)) (VOrdered.VOrdered Int))
(declare-fun coerce$35$$35$20 (Str) Str)
(declare-fun coerce$35$$35$59 ((VMonadPlus.VMonadPlus Int)) (VMonad.VMonad Int))
(declare-fun coerce$35$$35$78 ((VOrdered.VOrdered Int)) (VMonadPlus.VMonadPlus Int))
(declare-fun coerce$35$$35$62 ((VMonadPlus.VMonadPlus Int)) (VOrdered.VOrdered Int))
(declare-fun coerce$35$$35$77 ((VOrdered.VOrdered Int)) (VMonad.VMonad Int))
(declare-fun coerce$35$$35$10 (Bool) Bool)
(declare-fun coerce$35$$35$51 ((VMonad.VMonad Int)) (VMonadPlus.VMonadPlus Int))
(declare-fun coerce$35$$35$40 ((VList.VList Int)) (VList.VList Int))
(declare-fun coerce$35$$35$60 ((VMonadPlus.VMonadPlus Int)) (VMonadPlus.VMonadPlus Int))
(declare-fun coerce$35$$35$50 ((VMonad.VMonad Int)) (VMonad.VMonad Int))
(declare-fun coerce$35$$35$53 ((VMonad.VMonad Int)) (VOrdered.VOrdered Int))
(declare-fun coerce$35$$35$39 ((VList.VList Int)) (_ BitVec 32))
(declare-fun coerce$35$$35$64 (VNat.VNat) Bool)
(declare-fun coerce$35$$35$43 ((VList.VList Int)) VNat.VNat)
(declare-fun coerce$35$$35$2 (Int) Str)
(declare-fun coerce$35$$35$67 (VNat.VNat) (VList.VList Int))
(declare-fun coerce$35$$35$38 ((VList.VList Int)) Str)
(declare-fun coerce$35$$35$27 ((_ BitVec 32)) Int)
(declare-fun coerce$35$$35$3 (Int) (_ BitVec 32))
(declare-fun coerce$35$$35$9 (Bool) Int)
(declare-fun smt_lambda$35$$35$46 ((VMonad.VMonad Int) Bool) Int)
(declare-fun smt_lambda$35$$35$15 (Bool (VMonadPlus.VMonadPlus Int)) Int)
(declare-fun smt_lambda$35$$35$17 (Bool (VOrdered.VOrdered Int)) Int)
(declare-fun smt_lambda$35$$35$73 ((VOrdered.VOrdered Int) Bool) Int)
(declare-fun smt_lambda$35$$35$55 ((VMonadPlus.VMonadPlus Int) Bool) Int)
(declare-fun smt_lambda$35$$35$14 (Bool (VMonad.VMonad Int)) Int)
(declare-fun smt_lambda$35$$35$34 ((_ BitVec 32) VNat.VNat) Int)
(declare-fun smt_lambda$35$$35$28 ((_ BitVec 32) Bool) Int)
(declare-fun smt_lambda$35$$35$35 ((_ BitVec 32) (VOrdered.VOrdered Int)) Int)
(declare-fun smt_lambda$35$$35$33 ((_ BitVec 32) (VMonadPlus.VMonadPlus Int)) Int)
(declare-fun smt_lambda$35$$35$32 ((_ BitVec 32) (VMonad.VMonad Int)) Int)
(declare-fun smt_lambda$35$$35$19 (Str Bool) Int)
(declare-fun smt_lambda$35$$35$22 (Str (VList.VList Int)) Int)
(declare-fun smt_lambda$35$$35$11 (Bool Str) Int)
(declare-fun smt_lambda$35$$35$25 (Str VNat.VNat) Int)
(declare-fun smt_lambda$35$$35$4 (Int (VList.VList Int)) Int)
(declare-fun smt_lambda$35$$35$21 (Str (_ BitVec 32)) Int)
(declare-fun smt_lambda$35$$35$45 ((VMonad.VMonad Int) Int) Int)
(declare-fun smt_lambda$35$$35$72 ((VOrdered.VOrdered Int) Int) Int)
(declare-fun smt_lambda$35$$35$54 ((VMonadPlus.VMonadPlus Int) Int) Int)
(declare-fun smt_lambda$35$$35$76 ((VOrdered.VOrdered Int) (VList.VList Int)) Int)
(declare-fun smt_lambda$35$$35$49 ((VMonad.VMonad Int) (VList.VList Int)) Int)
(declare-fun smt_lambda$35$$35$58 ((VMonadPlus.VMonadPlus Int) (VList.VList Int)) Int)
(declare-fun smt_lambda$35$$35$42 ((VList.VList Int) (VMonadPlus.VMonadPlus Int)) Int)
(declare-fun smt_lambda$35$$35$30 ((_ BitVec 32) (_ BitVec 32)) Int)
(declare-fun smt_lambda$35$$35$70 (VNat.VNat VNat.VNat) Int)
(declare-fun smt_lambda$35$$35$0 (Int Int) Int)
(declare-fun smt_lambda$35$$35$41 ((VList.VList Int) (VMonad.VMonad Int)) Int)
(declare-fun smt_lambda$35$$35$44 ((VList.VList Int) (VOrdered.VOrdered Int)) Int)
(declare-fun smt_lambda$35$$35$79 ((VOrdered.VOrdered Int) VNat.VNat) Int)
(declare-fun smt_lambda$35$$35$69 (VNat.VNat (VMonadPlus.VMonadPlus Int)) Int)
(declare-fun smt_lambda$35$$35$75 ((VOrdered.VOrdered Int) (_ BitVec 32)) Int)
(declare-fun smt_lambda$35$$35$48 ((VMonad.VMonad Int) (_ BitVec 32)) Int)
(declare-fun smt_lambda$35$$35$52 ((VMonad.VMonad Int) VNat.VNat) Int)
(declare-fun smt_lambda$35$$35$68 (VNat.VNat (VMonad.VMonad Int)) Int)
(declare-fun smt_lambda$35$$35$61 ((VMonadPlus.VMonadPlus Int) VNat.VNat) Int)
(declare-fun smt_lambda$35$$35$71 (VNat.VNat (VOrdered.VOrdered Int)) Int)
(declare-fun smt_lambda$35$$35$57 ((VMonadPlus.VMonadPlus Int) (_ BitVec 32)) Int)
(declare-fun smt_lambda$35$$35$18 (Str Int) Int)
(declare-fun smt_lambda$35$$35$47 ((VMonad.VMonad Int) Str) Int)
(declare-fun smt_lambda$35$$35$74 ((VOrdered.VOrdered Int) Str) Int)
(declare-fun smt_lambda$35$$35$56 ((VMonadPlus.VMonadPlus Int) Str) Int)
(declare-fun smt_lambda$35$$35$65 (VNat.VNat Str) Int)
(declare-fun smt_lambda$35$$35$1 (Int Bool) Int)
(declare-fun smt_lambda$35$$35$37 ((VList.VList Int) Bool) Int)
(declare-fun smt_lambda$35$$35$13 (Bool (VList.VList Int)) Int)
(declare-fun smt_lambda$35$$35$66 (VNat.VNat (_ BitVec 32)) Int)
(declare-fun smt_lambda$35$$35$12 (Bool (_ BitVec 32)) Int)
(declare-fun smt_lambda$35$$35$31 ((_ BitVec 32) (VList.VList Int)) Int)
(declare-fun smt_lambda$35$$35$16 (Bool VNat.VNat) Int)
(declare-fun smt_lambda$35$$35$7 (Int VNat.VNat) Int)
(declare-fun smt_lambda$35$$35$23 (Str (VMonad.VMonad Int)) Int)
(declare-fun smt_lambda$35$$35$24 (Str (VMonadPlus.VMonadPlus Int)) Int)
(declare-fun smt_lambda$35$$35$26 (Str (VOrdered.VOrdered Int)) Int)
(declare-fun smt_lambda$35$$35$63 (VNat.VNat Int) Int)
(declare-fun smt_lambda$35$$35$6 (Int (VMonadPlus.VMonadPlus Int)) Int)
(declare-fun smt_lambda$35$$35$5 (Int (VMonad.VMonad Int)) Int)
(declare-fun smt_lambda$35$$35$8 (Int (VOrdered.VOrdered Int)) Int)
(declare-fun smt_lambda$35$$35$36 ((VList.VList Int) Int) Int)
(declare-fun smt_lambda$35$$35$29 ((_ BitVec 32) Str) Int)
(declare-fun smt_lambda$35$$35$80 ((VOrdered.VOrdered Int) (VOrdered.VOrdered Int)) Int)
(declare-fun smt_lambda$35$$35$20 (Str Str) Int)
(declare-fun smt_lambda$35$$35$59 ((VMonadPlus.VMonadPlus Int) (VMonad.VMonad Int)) Int)
(declare-fun smt_lambda$35$$35$78 ((VOrdered.VOrdered Int) (VMonadPlus.VMonadPlus Int)) Int)
(declare-fun smt_lambda$35$$35$62 ((VMonadPlus.VMonadPlus Int) (VOrdered.VOrdered Int)) Int)
(declare-fun smt_lambda$35$$35$77 ((VOrdered.VOrdered Int) (VMonad.VMonad Int)) Int)
(declare-fun smt_lambda$35$$35$10 (Bool Bool) Int)
(declare-fun smt_lambda$35$$35$51 ((VMonad.VMonad Int) (VMonadPlus.VMonadPlus Int)) Int)
(declare-fun smt_lambda$35$$35$40 ((VList.VList Int) (VList.VList Int)) Int)
(declare-fun smt_lambda$35$$35$60 ((VMonadPlus.VMonadPlus Int) (VMonadPlus.VMonadPlus Int)) Int)
(declare-fun smt_lambda$35$$35$50 ((VMonad.VMonad Int) (VMonad.VMonad Int)) Int)
(declare-fun smt_lambda$35$$35$53 ((VMonad.VMonad Int) (VOrdered.VOrdered Int)) Int)
(declare-fun smt_lambda$35$$35$39 ((VList.VList Int) (_ BitVec 32)) Int)
(declare-fun smt_lambda$35$$35$64 (VNat.VNat Bool) Int)
(declare-fun smt_lambda$35$$35$43 ((VList.VList Int) VNat.VNat) Int)
(declare-fun smt_lambda$35$$35$2 (Int Str) Int)
(declare-fun smt_lambda$35$$35$67 (VNat.VNat (VList.VList Int)) Int)
(declare-fun smt_lambda$35$$35$38 ((VList.VList Int) Str) Int)
(declare-fun smt_lambda$35$$35$27 ((_ BitVec 32) Int) Int)
(declare-fun smt_lambda$35$$35$3 (Int (_ BitVec 32)) Int)
(declare-fun smt_lambda$35$$35$9 (Bool Int) Int)
(declare-fun lam_arg$35$$35$1$35$$35$45 () (VMonad.VMonad Int))
(declare-fun lam_arg$35$$35$2$35$$35$45 () (VMonad.VMonad Int))
(declare-fun lam_arg$35$$35$3$35$$35$45 () (VMonad.VMonad Int))
(declare-fun lam_arg$35$$35$4$35$$35$45 () (VMonad.VMonad Int))
(declare-fun lam_arg$35$$35$5$35$$35$45 () (VMonad.VMonad Int))
(declare-fun lam_arg$35$$35$6$35$$35$45 () (VMonad.VMonad Int))
(declare-fun lam_arg$35$$35$7$35$$35$45 () (VMonad.VMonad Int))
(declare-fun lam_arg$35$$35$1$35$$35$72 () (VOrdered.VOrdered Int))
(declare-fun lam_arg$35$$35$2$35$$35$72 () (VOrdered.VOrdered Int))
(declare-fun lam_arg$35$$35$3$35$$35$72 () (VOrdered.VOrdered Int))
(declare-fun lam_arg$35$$35$4$35$$35$72 () (VOrdered.VOrdered Int))
(declare-fun lam_arg$35$$35$5$35$$35$72 () (VOrdered.VOrdered Int))
(declare-fun lam_arg$35$$35$6$35$$35$72 () (VOrdered.VOrdered Int))
(declare-fun lam_arg$35$$35$7$35$$35$72 () (VOrdered.VOrdered Int))
(declare-fun lam_arg$35$$35$1$35$$35$54 () (VMonadPlus.VMonadPlus Int))
(declare-fun lam_arg$35$$35$2$35$$35$54 () (VMonadPlus.VMonadPlus Int))
(declare-fun lam_arg$35$$35$3$35$$35$54 () (VMonadPlus.VMonadPlus Int))
(declare-fun lam_arg$35$$35$4$35$$35$54 () (VMonadPlus.VMonadPlus Int))
(declare-fun lam_arg$35$$35$5$35$$35$54 () (VMonadPlus.VMonadPlus Int))
(declare-fun lam_arg$35$$35$6$35$$35$54 () (VMonadPlus.VMonadPlus Int))
(declare-fun lam_arg$35$$35$7$35$$35$54 () (VMonadPlus.VMonadPlus Int))
(declare-fun lam_arg$35$$35$1$35$$35$0 () Int)
(declare-fun lam_arg$35$$35$2$35$$35$0 () Int)
(declare-fun lam_arg$35$$35$3$35$$35$0 () Int)
(declare-fun lam_arg$35$$35$4$35$$35$0 () Int)
(declare-fun lam_arg$35$$35$5$35$$35$0 () Int)
(declare-fun lam_arg$35$$35$6$35$$35$0 () Int)
(declare-fun lam_arg$35$$35$7$35$$35$0 () Int)
(declare-fun lam_arg$35$$35$1$35$$35$18 () Str)
(declare-fun lam_arg$35$$35$2$35$$35$18 () Str)
(declare-fun lam_arg$35$$35$3$35$$35$18 () Str)
(declare-fun lam_arg$35$$35$4$35$$35$18 () Str)
(declare-fun lam_arg$35$$35$5$35$$35$18 () Str)
(declare-fun lam_arg$35$$35$6$35$$35$18 () Str)
(declare-fun lam_arg$35$$35$7$35$$35$18 () Str)
(declare-fun lam_arg$35$$35$1$35$$35$63 () VNat.VNat)
(declare-fun lam_arg$35$$35$2$35$$35$63 () VNat.VNat)
(declare-fun lam_arg$35$$35$3$35$$35$63 () VNat.VNat)
(declare-fun lam_arg$35$$35$4$35$$35$63 () VNat.VNat)
(declare-fun lam_arg$35$$35$5$35$$35$63 () VNat.VNat)
(declare-fun lam_arg$35$$35$6$35$$35$63 () VNat.VNat)
(declare-fun lam_arg$35$$35$7$35$$35$63 () VNat.VNat)
(declare-fun lam_arg$35$$35$1$35$$35$36 () (VList.VList Int))
(declare-fun lam_arg$35$$35$2$35$$35$36 () (VList.VList Int))
(declare-fun lam_arg$35$$35$3$35$$35$36 () (VList.VList Int))
(declare-fun lam_arg$35$$35$4$35$$35$36 () (VList.VList Int))
(declare-fun lam_arg$35$$35$5$35$$35$36 () (VList.VList Int))
(declare-fun lam_arg$35$$35$6$35$$35$36 () (VList.VList Int))
(declare-fun lam_arg$35$$35$7$35$$35$36 () (VList.VList Int))
(declare-fun lam_arg$35$$35$1$35$$35$27 () (_ BitVec 32))
(declare-fun lam_arg$35$$35$2$35$$35$27 () (_ BitVec 32))
(declare-fun lam_arg$35$$35$3$35$$35$27 () (_ BitVec 32))
(declare-fun lam_arg$35$$35$4$35$$35$27 () (_ BitVec 32))
(declare-fun lam_arg$35$$35$5$35$$35$27 () (_ BitVec 32))
(declare-fun lam_arg$35$$35$6$35$$35$27 () (_ BitVec 32))
(declare-fun lam_arg$35$$35$7$35$$35$27 () (_ BitVec 32))
(declare-fun lam_arg$35$$35$1$35$$35$9 () Bool)
(declare-fun lam_arg$35$$35$2$35$$35$9 () Bool)
(declare-fun lam_arg$35$$35$3$35$$35$9 () Bool)
(declare-fun lam_arg$35$$35$4$35$$35$9 () Bool)
(declare-fun lam_arg$35$$35$5$35$$35$9 () Bool)
(declare-fun lam_arg$35$$35$6$35$$35$9 () Bool)
(declare-fun lam_arg$35$$35$7$35$$35$9 () Bool)

(assert (distinct lit$36$monadic$45$quicksort$45$verification$45$0.1.0.0$45$inplace lit$36$SlowSortList))

(assert (distinct GHC.Types.True GHC.Types.False))

(assert (distinct Language.Haskell.Liquid.ProofCombinators.QED Language.Haskell.Liquid.ProofCombinators.Admit))
(assert (distinct GHC.Types.EQ GHC.Types.GT GHC.Types.LT))
(assert (= (strLen lit$36$SlowSortList) 12))
(assert (= (strLen lit$36$monadic$45$quicksort$45$verification$45$0.1.0.0$45$inplace) 46))
(push 1)
